(set-logic QF_S)
(declare-fun x () String)
(declare-fun y () String)
(declare-fun z () Int)
(assert (not (= (str.replace (str.replace "" y "B") x "B") (str.replace (str.replace "" x "B") y "B"))))
(check-sat)
